1 1536 7
2 1448 7
3 1405 7
4 1353 7
8 1309 7
90 1291 7
95 1287 7
211 1271 7
239 1263 7
303 1242 7



1 1611 7
2 1436 7
3 1369 7
6 1354 7
8 1353 7
9 1340 7
10 1332 7
12 1304 7
22 1299 7
98 1294 7
141 1285 7
246 1280 7
304 1267 7
849 1255 7



1 1540 7
2 1399 7
3 1383 7
4 1339 7
12 1327 7
19 1283 7
112 1272 7
222 1271 7
255 1265 7
631 1257 7



1 1588 7
2 1448 7
3 1381 7
4 1371 7
5 1363 7
7 1351 7
10 1318 7
12 1285 7
13 1263 7
162 1262 7
285 1245 7



1 1498 7
2 1406 7
3 1335 7
5 1322 7
11 1308 7
15 1295 7
58 1291 7
74 1289 7
92 1285 7
122 1275 7
179 1270 7
273 1269 7
383 1264 7
574 1251 7
763 1244 7



